p cnf 7230 16
-4936 -6701 -6708 0
-4938 -6703 -6706 0
-6702 6708 0
-6704 6706 0
6703 6704 0
6701 6702 0
4938 -6704 0
4936 -6702 0
6707 6708 0
6639 -6708 0
-6639 -6707 0
6705 6706 0
6637 -6706 0
-6637 -6705 0
6699 6700 0
-6699 -6700 0
